\* Problem: SCRS8CH *\

Minimize
 ROWOBJ: + 634.54094 COL00001 + 185.20865 COL00002 + 185.20865 COL00003
 + 105.4884 COL00004 + 12.07882 COL00005 + 20.13137 COL00006
 + 112.7357 COL00007 + 5305.3823 COL00011 + 241.5765 COL00028
 + 483.153 COL00029 + 748.88715 COL00030 + 990.46365 COL00031
 + 1215.93505 COL00032 + 1425.30135 COL00033 + 1610.51 COL00034
 + 1779.61355 COL00035 + 1924.55945 COL00036 + 2053.40025 COL00037
 + 24.625 COL00038 + 7.1875 COL00039 + 7.1875 COL00040
 + 4.09375 COL00041 + 0.46875 COL00042 + 0.78125 COL00043
 + 4.375 COL00044 + 205.889038 COL00048 + 274.5188 COL00049
 + 9.375 COL00066 + 18.75 COL00067 + 29.0625 COL00068 + 38.4375 COL00069
 + 47.1875 COL00070 + 55.3125 COL00071 + 62.5 COL00072
 + 69.0625 COL00073 + 74.6875 COL00074 + 79.6875 COL00075
 + 24.625 COL00076 + 7.1875 COL00077 + 7.1875 COL00078
 + 4.09375 COL00079 + 0.46875 COL00080 + 0.78125 COL00081
 + 4.375 COL00082 + 205.889038 COL00086 + 274.5188 COL00087
 + 9.375 COL00104 + 18.75 COL00105 + 29.0625 COL00106 + 38.4375 COL00107
 + 47.1875 COL00108 + 55.3125 COL00109 + 62.5 COL00110
 + 69.0625 COL00111 + 74.6875 COL00112 + 79.6875 COL00113
 + 24.625 COL00114 + 7.1875 COL00115 + 7.1875 COL00116
 + 4.09375 COL00117 + 0.46875 COL00118 + 0.78125 COL00119
 + 4.375 COL00120 + 205.889038 COL00124 + 274.5188 COL00125
 + 9.375 COL00142 + 18.75 COL00143 + 29.0625 COL00144 + 38.4375 COL00145
 + 47.1875 COL00146 + 55.3125 COL00147 + 62.5 COL00148
 + 69.0625 COL00149 + 74.6875 COL00150 + 79.6875 COL00151
 + 24.625 COL00152 + 7.1875 COL00153 + 7.1875 COL00154
 + 4.09375 COL00155 + 0.46875 COL00156 + 0.78125 COL00157
 + 4.375 COL00158 + 205.889038 COL00162 + 274.5188 COL00163
 + 9.375 COL00180 + 18.75 COL00181 + 29.0625 COL00182 + 38.4375 COL00183
 + 47.1875 COL00184 + 55.3125 COL00185 + 62.5 COL00186
 + 69.0625 COL00187 + 74.6875 COL00188 + 79.6875 COL00189
 + 24.625 COL00190 + 7.1875 COL00191 + 7.1875 COL00192
 + 4.09375 COL00193 + 0.46875 COL00194 + 0.78125 COL00195
 + 4.375 COL00196 + 205.889038 COL00200 + 274.5188 COL00201
 + 9.375 COL00218 + 18.75 COL00219 + 29.0625 COL00220 + 38.4375 COL00221
 + 47.1875 COL00222 + 55.3125 COL00223 + 62.5 COL00224
 + 69.0625 COL00225 + 74.6875 COL00226 + 79.6875 COL00227
 + 24.625 COL00228 + 7.1875 COL00229 + 7.1875 COL00230
 + 4.09375 COL00231 + 0.46875 COL00232 + 0.78125 COL00233
 + 4.375 COL00234 + 205.889038 COL00238 + 274.5188 COL00239
 + 9.375 COL00256 + 18.75 COL00257 + 29.0625 COL00258 + 38.4375 COL00259
 + 47.1875 COL00260 + 55.3125 COL00261 + 62.5 COL00262
 + 69.0625 COL00263 + 74.6875 COL00264 + 79.6875 COL00265
 + 24.625 COL00266 + 7.1875 COL00267 + 7.1875 COL00268
 + 4.09375 COL00269 + 0.46875 COL00270 + 0.78125 COL00271
 + 4.375 COL00272 + 205.889038 COL00276 + 274.5188 COL00277
 + 9.375 COL00294 + 18.75 COL00295 + 29.0625 COL00296 + 38.4375 COL00297
 + 47.1875 COL00298 + 55.3125 COL00299 + 62.5 COL00300
 + 69.0625 COL00301 + 74.6875 COL00302 + 79.6875 COL00303
 + 24.625 COL00304 + 7.1875 COL00305 + 7.1875 COL00306
 + 4.09375 COL00307 + 0.46875 COL00308 + 0.78125 COL00309
 + 4.375 COL00310 + 205.889038 COL00314 + 274.5188 COL00315
 + 9.375 COL00332 + 18.75 COL00333 + 29.0625 COL00334 + 38.4375 COL00335
 + 47.1875 COL00336 + 55.3125 COL00337 + 62.5 COL00338
 + 69.0625 COL00339 + 74.6875 COL00340 + 79.6875 COL00341
 + 24.625 COL00342 + 7.1875 COL00343 + 7.1875 COL00344
 + 4.09375 COL00345 + 0.46875 COL00346 + 0.78125 COL00347
 + 4.375 COL00348 + 205.889038 COL00352 + 274.5188 COL00353
 + 9.375 COL00370 + 18.75 COL00371 + 29.0625 COL00372 + 38.4375 COL00373
 + 47.1875 COL00374 + 55.3125 COL00375 + 62.5 COL00376
 + 69.0625 COL00377 + 74.6875 COL00378 + 79.6875 COL00379
 + 24.625 COL00380 + 7.1875 COL00381 + 7.1875 COL00382
 + 4.09375 COL00383 + 0.46875 COL00384 + 0.78125 COL00385
 + 4.375 COL00386 + 205.889038 COL00390 + 274.5188 COL00391
 + 9.375 COL00408 + 18.75 COL00409 + 29.0625 COL00410 + 38.4375 COL00411
 + 47.1875 COL00412 + 55.3125 COL00413 + 62.5 COL00414
 + 69.0625 COL00415 + 74.6875 COL00416 + 79.6875 COL00417
 + 24.625 COL00418 + 7.1875 COL00419 + 7.1875 COL00420
 + 4.09375 COL00421 + 0.46875 COL00422 + 0.78125 COL00423
 + 4.375 COL00424 + 205.889038 COL00428 + 274.5188 COL00429
 + 9.375 COL00446 + 18.75 COL00447 + 29.0625 COL00448 + 38.4375 COL00449
 + 47.1875 COL00450 + 55.3125 COL00451 + 62.5 COL00452
 + 69.0625 COL00453 + 74.6875 COL00454 + 79.6875 COL00455
 + 24.625 COL00456 + 7.1875 COL00457 + 7.1875 COL00458
 + 4.09375 COL00459 + 0.46875 COL00460 + 0.78125 COL00461
 + 4.375 COL00462 + 205.889038 COL00466 + 274.5188 COL00467
 + 9.375 COL00484 + 18.75 COL00485 + 29.0625 COL00486 + 38.4375 COL00487
 + 47.1875 COL00488 + 55.3125 COL00489 + 62.5 COL00490
 + 69.0625 COL00491 + 74.6875 COL00492 + 79.6875 COL00493
 + 24.625 COL00494 + 7.1875 COL00495 + 7.1875 COL00496
 + 4.09375 COL00497 + 0.46875 COL00498 + 0.78125 COL00499
 + 4.375 COL00500 + 205.889038 COL00504 + 274.5188 COL00505
 + 9.375 COL00522 + 18.75 COL00523 + 29.0625 COL00524 + 38.4375 COL00525
 + 47.1875 COL00526 + 55.3125 COL00527 + 62.5 COL00528
 + 69.0625 COL00529 + 74.6875 COL00530 + 79.6875 COL00531
 + 24.625 COL00532 + 7.1875 COL00533 + 7.1875 COL00534
 + 4.09375 COL00535 + 0.46875 COL00536 + 0.78125 COL00537
 + 4.375 COL00538 + 205.889038 COL00542 + 274.5188 COL00543
 + 9.375 COL00560 + 18.75 COL00561 + 29.0625 COL00562 + 38.4375 COL00563
 + 47.1875 COL00564 + 55.3125 COL00565 + 62.5 COL00566
 + 69.0625 COL00567 + 74.6875 COL00568 + 79.6875 COL00569
 + 24.625 COL00570 + 7.1875 COL00571 + 7.1875 COL00572
 + 4.09375 COL00573 + 0.46875 COL00574 + 0.78125 COL00575
 + 4.375 COL00576 + 205.889038 COL00580 + 274.5188 COL00581
 + 9.375 COL00598 + 18.75 COL00599 + 29.0625 COL00600 + 38.4375 COL00601
 + 47.1875 COL00602 + 55.3125 COL00603 + 62.5 COL00604
 + 69.0625 COL00605 + 74.6875 COL00606 + 79.6875 COL00607
 + 24.625 COL00608 + 7.1875 COL00609 + 7.1875 COL00610
 + 4.09375 COL00611 + 0.46875 COL00612 + 0.78125 COL00613
 + 4.375 COL00614 + 205.889038 COL00618 + 274.5188 COL00619
 + 9.375 COL00636 + 18.75 COL00637 + 29.0625 COL00638 + 38.4375 COL00639
 + 47.1875 COL00640 + 55.3125 COL00641 + 62.5 COL00642
 + 69.0625 COL00643 + 74.6875 COL00644 + 79.6875 COL00645

Subject To
 ROW00001: - COL00001 + 5 COL00011 = 0
 ROW00002: - COL00002 = 0
 ROW00003: - COL00003 = 0
 ROW00004: - COL00004 = 0
 ROW00005: - COL00005 + 5 COL00012 = 0
 ROW00006: - COL00006 + 5 COL00013 = 0
 ROW00007: - COL00007 = 0
 ROW00008: - COL00008 = 0
 ROW00009: - COL00009 + 5 COL00014 = 0
 ROW00010: + COL00001 + COL00002 + COL00003 + COL00004 - COL00008 >= 0
 ROW00011: + COL00005 + COL00006 + 22.5 COL00007 + 36 COL00008 >= 0
 ROW00012: + 0.0657 COL00001 + 0.00133 COL00006 - 0.2 COL00015
 = -0.01298
 ROW00013: + 0.001 COL00005 - 0.2 COL00016 = -0.044
 ROW00014: + 0.16 COL00010 - 0.2 COL00017 = 0
 ROW00015: + 0.16 COL00002 - COL00028 - COL00029 - COL00030 - COL00031
 - COL00032 - COL00033 - COL00034 - COL00035 - COL00036 - COL00037 <= 0
 ROW00016: + 0.11 COL00002 - COL00009 <= 0
 ROW00017: + 0.3 COL00007 + COL00010 <= 0
 ROW00018: + 0.7 COL00011 >= 0
 ROW00019: - COL00018 + 5 COL00028 = 0
 ROW00020: - COL00019 + 5 COL00029 = 0
 ROW00021: - COL00020 + 5 COL00030 = 0
 ROW00022: - COL00021 + 5 COL00031 = 0
 ROW00023: - COL00022 + 5 COL00032 = 0
 ROW00024: - COL00023 + 5 COL00033 = 0
 ROW00025: - COL00024 + 5 COL00034 = 0
 ROW00026: - COL00025 + 5 COL00035 = 0
 ROW00027: - COL00026 + 5 COL00036 = 0
 ROW00028: - COL00027 + 5 COL00037 = 0
 ROW00029: + 0.844 COL00001 - COL00038 + 5 COL00048 = 0
 ROW00030: + 0.844 COL00002 - COL00039 + 5 COL00049 = 0
 ROW00031: + 0.844 COL00003 - COL00040 = 0
 ROW00032: + 0.844 COL00004 - COL00041 = 0
 ROW00033: + 0.844 COL00005 - COL00042 + 5 COL00050 = 0
 ROW00034: + 0.844 COL00006 - COL00043 + 5 COL00051 = 0
 ROW00035: + 0.844 COL00007 - COL00044 = 0
 ROW00036: + 0.844 COL00008 - COL00045 = 0
 ROW00037: + 0.844 COL00009 - COL00046 + 5 COL00052 = 0
 ROW00038: + COL00038 + COL00039 + COL00040 + COL00041 - COL00045 >= 0.1
 ROW00039: + COL00042 + COL00043 + 22.5 COL00044 + 36 COL00045 >= 1.1911
 ROW00040: + 0.2 COL00015 + 0.0657 COL00038 + 0.0013 COL00043
 - 0.2 COL00053 = -0.013
 ROW00041: + 0.2 COL00016 + 0.001 COL00042 - 0.2 COL00054 = -0.04
 ROW00042: + 0.17 COL00002 + 0.062 COL00003 + 0.2 COL00017
 + 0.16 COL00047 - 0.2 COL00055 = 0
 ROW00043: - 0.016 COL00002 - 0.007 COL00007 + 0.16 COL00039
 + 0.5 COL00049 - COL00066 - COL00067 - COL00068 - COL00069 - COL00070
 - COL00071 - COL00072 - COL00073 - COL00074 - COL00075 <= 0
 ROW00044: - 0.007 COL00002 - 0.005 COL00007 + 0.11 COL00039 - COL00046
 + 0.23 COL00049 <= 0
 ROW00045: - COL00003 + 0.3 COL00044 + COL00047 <= 0
 ROW00046: + 0.7 COL00048 - 0.3 COL00049 >= 0
 ROW00047: + COL00018 - COL00056 + 5 COL00066 <= 1.5
 ROW00048: + COL00019 - COL00057 + 5 COL00067 <= 1
 ROW00049: + COL00020 - COL00058 + 5 COL00068 <= 1
 ROW00050: + COL00021 - COL00059 + 5 COL00069 <= 1
 ROW00051: + COL00022 - COL00060 + 5 COL00070 <= 1
 ROW00052: + COL00023 - COL00061 + 5 COL00071 <= 1
 ROW00053: + COL00024 - COL00062 + 5 COL00072 <= 1
 ROW00054: + COL00025 - COL00063 + 5 COL00073 <= 1
 ROW00055: + COL00026 - COL00064 + 5 COL00074 <= 1
 ROW00056: + COL00027 - COL00065 + 5 COL00075 <= 1
 ROW00057: + 0.844 COL00001 - COL00076 + 5 COL00086 = 0
 ROW00058: + 0.844 COL00002 - COL00077 + 5 COL00087 = 0
 ROW00059: + 0.844 COL00003 - COL00078 = 0
 ROW00060: + 0.844 COL00004 - COL00079 = 0
 ROW00061: + 0.844 COL00005 - COL00080 + 5 COL00088 = 0
 ROW00062: + 0.844 COL00006 - COL00081 + 5 COL00089 = 0
 ROW00063: + 0.844 COL00007 - COL00082 = 0
 ROW00064: + 0.844 COL00008 - COL00083 = 0
 ROW00065: + 0.844 COL00009 - COL00084 + 5 COL00090 = 0
 ROW00066: + COL00076 + COL00077 + COL00078 + COL00079 - COL00083 >= 0.1
 ROW00067: + COL00080 + COL00081 + 22.5 COL00082 + 36 COL00083 >= 1.1911
 ROW00068: + 0.2 COL00015 + 0.0657 COL00076 + 0.0013 COL00081
 - 0.2 COL00091 = -0.013
 ROW00069: + 0.2 COL00016 + 0.001 COL00080 - 0.2 COL00092 = -0.0367
 ROW00070: + 0.17 COL00002 + 0.062 COL00003 + 0.2 COL00017
 + 0.16 COL00085 - 0.2 COL00093 = 0
 ROW00071: - 0.016 COL00002 - 0.007 COL00007 + 0.16 COL00077
 + 0.5 COL00087 - COL00104 - COL00105 - COL00106 - COL00107 - COL00108
 - COL00109 - COL00110 - COL00111 - COL00112 - COL00113 <= 0
 ROW00072: - 0.007 COL00002 - 0.005 COL00007 + 0.11 COL00077 - COL00084
 + 0.23 COL00087 <= 0
 ROW00073: - COL00003 + 0.3 COL00082 + COL00085 <= 0
 ROW00074: + 0.7 COL00086 - 0.3 COL00087 >= 0
 ROW00075: + COL00018 - COL00094 + 5 COL00104 <= 1.5
 ROW00076: + COL00019 - COL00095 + 5 COL00105 <= 1
 ROW00077: + COL00020 - COL00096 + 5 COL00106 <= 1
 ROW00078: + COL00021 - COL00097 + 5 COL00107 <= 1
 ROW00079: + COL00022 - COL00098 + 5 COL00108 <= 1
 ROW00080: + COL00023 - COL00099 + 5 COL00109 <= 1
 ROW00081: + COL00024 - COL00100 + 5 COL00110 <= 1
 ROW00082: + COL00025 - COL00101 + 5 COL00111 <= 1
 ROW00083: + COL00026 - COL00102 + 5 COL00112 <= 1
 ROW00084: + COL00027 - COL00103 + 5 COL00113 <= 1
 ROW00085: + 0.844 COL00001 - COL00114 + 5 COL00124 = 0
 ROW00086: + 0.844 COL00002 - COL00115 + 5 COL00125 = 0
 ROW00087: + 0.844 COL00003 - COL00116 = 0
 ROW00088: + 0.844 COL00004 - COL00117 = 0
 ROW00089: + 0.844 COL00005 - COL00118 + 5 COL00126 = 0
 ROW00090: + 0.844 COL00006 - COL00119 + 5 COL00127 = 0
 ROW00091: + 0.844 COL00007 - COL00120 = 0
 ROW00092: + 0.844 COL00008 - COL00121 = 0
 ROW00093: + 0.844 COL00009 - COL00122 + 5 COL00128 = 0
 ROW00094: + COL00114 + COL00115 + COL00116 + COL00117 - COL00121 >= 0.1
 ROW00095: + COL00118 + COL00119 + 22.5 COL00120 + 36 COL00121 >= 1.1911
 ROW00096: + 0.2 COL00015 + 0.0657 COL00114 + 0.0013 COL00119
 - 0.2 COL00129 = -0.013
 ROW00097: + 0.2 COL00016 + 0.001 COL00118 - 0.2 COL00130 = -0.0333
 ROW00098: + 0.17 COL00002 + 0.062 COL00003 + 0.2 COL00017
 + 0.16 COL00123 - 0.2 COL00131 = 0
 ROW00099: - 0.016 COL00002 - 0.007 COL00007 + 0.16 COL00115
 + 0.5 COL00125 - COL00142 - COL00143 - COL00144 - COL00145 - COL00146
 - COL00147 - COL00148 - COL00149 - COL00150 - COL00151 <= 0
 ROW00100: - 0.007 COL00002 - 0.005 COL00007 + 0.11 COL00115 - COL00122
 + 0.23 COL00125 <= 0
 ROW00101: - COL00003 + 0.3 COL00120 + COL00123 <= 0
 ROW00102: + 0.7 COL00124 - 0.3 COL00125 >= 0
 ROW00103: + COL00018 - COL00132 + 5 COL00142 <= 1.5
 ROW00104: + COL00019 - COL00133 + 5 COL00143 <= 1
 ROW00105: + COL00020 - COL00134 + 5 COL00144 <= 1
 ROW00106: + COL00021 - COL00135 + 5 COL00145 <= 1
 ROW00107: + COL00022 - COL00136 + 5 COL00146 <= 1
 ROW00108: + COL00023 - COL00137 + 5 COL00147 <= 1
 ROW00109: + COL00024 - COL00138 + 5 COL00148 <= 1
 ROW00110: + COL00025 - COL00139 + 5 COL00149 <= 1
 ROW00111: + COL00026 - COL00140 + 5 COL00150 <= 1
 ROW00112: + COL00027 - COL00141 + 5 COL00151 <= 1
 ROW00113: + 0.844 COL00001 - COL00152 + 5 COL00162 = 0
 ROW00114: + 0.844 COL00002 - COL00153 + 5 COL00163 = 0
 ROW00115: + 0.844 COL00003 - COL00154 = 0
 ROW00116: + 0.844 COL00004 - COL00155 = 0
 ROW00117: + 0.844 COL00005 - COL00156 + 5 COL00164 = 0
 ROW00118: + 0.844 COL00006 - COL00157 + 5 COL00165 = 0
 ROW00119: + 0.844 COL00007 - COL00158 = 0
 ROW00120: + 0.844 COL00008 - COL00159 = 0
 ROW00121: + 0.844 COL00009 - COL00160 + 5 COL00166 = 0
 ROW00122: + COL00152 + COL00153 + COL00154 + COL00155 - COL00159 >= 0.1
 ROW00123: + COL00156 + COL00157 + 22.5 COL00158 + 36 COL00159 >= 1.1911
 ROW00124: + 0.2 COL00015 + 0.0657 COL00152 + 0.0013 COL00157
 - 0.2 COL00167 = -0.013
 ROW00125: + 0.2 COL00016 + 0.001 COL00156 - 0.2 COL00168 = -0.03
 ROW00126: + 0.17 COL00002 + 0.062 COL00003 + 0.2 COL00017
 + 0.16 COL00161 - 0.2 COL00169 = 0
 ROW00127: - 0.016 COL00002 - 0.007 COL00007 + 0.16 COL00153
 + 0.5 COL00163 - COL00180 - COL00181 - COL00182 - COL00183 - COL00184
 - COL00185 - COL00186 - COL00187 - COL00188 - COL00189 <= 0
 ROW00128: - 0.007 COL00002 - 0.005 COL00007 + 0.11 COL00153 - COL00160
 + 0.23 COL00163 <= 0
 ROW00129: - COL00003 + 0.3 COL00158 + COL00161 <= 0
 ROW00130: + 0.7 COL00162 - 0.3 COL00163 >= 0
 ROW00131: + COL00018 - COL00170 + 5 COL00180 <= 1.5
 ROW00132: + COL00019 - COL00171 + 5 COL00181 <= 1
 ROW00133: + COL00020 - COL00172 + 5 COL00182 <= 1
 ROW00134: + COL00021 - COL00173 + 5 COL00183 <= 1
 ROW00135: + COL00022 - COL00174 + 5 COL00184 <= 1
 ROW00136: + COL00023 - COL00175 + 5 COL00185 <= 1
 ROW00137: + COL00024 - COL00176 + 5 COL00186 <= 1
 ROW00138: + COL00025 - COL00177 + 5 COL00187 <= 1
 ROW00139: + COL00026 - COL00178 + 5 COL00188 <= 1
 ROW00140: + COL00027 - COL00179 + 5 COL00189 <= 1
 ROW00141: + 0.844 COL00001 - COL00190 + 5 COL00200 = 0
 ROW00142: + 0.844 COL00002 - COL00191 + 5 COL00201 = 0
 ROW00143: + 0.844 COL00003 - COL00192 = 0
 ROW00144: + 0.844 COL00004 - COL00193 = 0
 ROW00145: + 0.844 COL00005 - COL00194 + 5 COL00202 = 0
 ROW00146: + 0.844 COL00006 - COL00195 + 5 COL00203 = 0
 ROW00147: + 0.844 COL00007 - COL00196 = 0
 ROW00148: + 0.844 COL00008 - COL00197 = 0
 ROW00149: + 0.844 COL00009 - COL00198 + 5 COL00204 = 0
 ROW00150: + COL00190 + COL00191 + COL00192 + COL00193 - COL00197 >= 0.1
 ROW00151: + COL00194 + COL00195 + 22.5 COL00196 + 36 COL00197 >= 1.1911
 ROW00152: + 0.2 COL00015 + 0.0657 COL00190 + 0.0013 COL00195
 - 0.2 COL00205 = -0.014
 ROW00153: + 0.2 COL00016 + 0.001 COL00194 - 0.2 COL00206 = -0.04
 ROW00154: + 0.17 COL00002 + 0.062 COL00003 + 0.2 COL00017
 + 0.16 COL00199 - 0.2 COL00207 = 0
 ROW00155: - 0.016 COL00002 - 0.007 COL00007 + 0.16 COL00191
 + 0.5 COL00201 - COL00218 - COL00219 - COL00220 - COL00221 - COL00222
 - COL00223 - COL00224 - COL00225 - COL00226 - COL00227 <= 0
 ROW00156: - 0.007 COL00002 - 0.005 COL00007 + 0.11 COL00191 - COL00198
 + 0.23 COL00201 <= 0
 ROW00157: - COL00003 + 0.3 COL00196 + COL00199 <= 0
 ROW00158: + 0.7 COL00200 - 0.3 COL00201 >= 0
 ROW00159: + COL00018 - COL00208 + 5 COL00218 <= 1.5
 ROW00160: + COL00019 - COL00209 + 5 COL00219 <= 1
 ROW00161: + COL00020 - COL00210 + 5 COL00220 <= 1
 ROW00162: + COL00021 - COL00211 + 5 COL00221 <= 1
 ROW00163: + COL00022 - COL00212 + 5 COL00222 <= 1
 ROW00164: + COL00023 - COL00213 + 5 COL00223 <= 1
 ROW00165: + COL00024 - COL00214 + 5 COL00224 <= 1
 ROW00166: + COL00025 - COL00215 + 5 COL00225 <= 1
 ROW00167: + COL00026 - COL00216 + 5 COL00226 <= 1
 ROW00168: + COL00027 - COL00217 + 5 COL00227 <= 1
 ROW00169: + 0.844 COL00001 - COL00228 + 5 COL00238 = 0
 ROW00170: + 0.844 COL00002 - COL00229 + 5 COL00239 = 0
 ROW00171: + 0.844 COL00003 - COL00230 = 0
 ROW00172: + 0.844 COL00004 - COL00231 = 0
 ROW00173: + 0.844 COL00005 - COL00232 + 5 COL00240 = 0
 ROW00174: + 0.844 COL00006 - COL00233 + 5 COL00241 = 0
 ROW00175: + 0.844 COL00007 - COL00234 = 0
 ROW00176: + 0.844 COL00008 - COL00235 = 0
 ROW00177: + 0.844 COL00009 - COL00236 + 5 COL00242 = 0
 ROW00178: + COL00228 + COL00229 + COL00230 + COL00231 - COL00235 >= 0.1
 ROW00179: + COL00232 + COL00233 + 22.5 COL00234 + 36 COL00235 >= 1.1911
 ROW00180: + 0.2 COL00015 + 0.0657 COL00228 + 0.0013 COL00233
 - 0.2 COL00243 = -0.014
 ROW00181: + 0.2 COL00016 + 0.001 COL00232 - 0.2 COL00244 = -0.0367
 ROW00182: + 0.17 COL00002 + 0.062 COL00003 + 0.2 COL00017
 + 0.16 COL00237 - 0.2 COL00245 = 0
 ROW00183: - 0.016 COL00002 - 0.007 COL00007 + 0.16 COL00229
 + 0.5 COL00239 - COL00256 - COL00257 - COL00258 - COL00259 - COL00260
 - COL00261 - COL00262 - COL00263 - COL00264 - COL00265 <= 0
 ROW00184: - 0.007 COL00002 - 0.005 COL00007 + 0.11 COL00229 - COL00236
 + 0.23 COL00239 <= 0
 ROW00185: - COL00003 + 0.3 COL00234 + COL00237 <= 0
 ROW00186: + 0.7 COL00238 - 0.3 COL00239 >= 0
 ROW00187: + COL00018 - COL00246 + 5 COL00256 <= 1.5
 ROW00188: + COL00019 - COL00247 + 5 COL00257 <= 1
 ROW00189: + COL00020 - COL00248 + 5 COL00258 <= 1
 ROW00190: + COL00021 - COL00249 + 5 COL00259 <= 1
 ROW00191: + COL00022 - COL00250 + 5 COL00260 <= 1
 ROW00192: + COL00023 - COL00251 + 5 COL00261 <= 1
 ROW00193: + COL00024 - COL00252 + 5 COL00262 <= 1
 ROW00194: + COL00025 - COL00253 + 5 COL00263 <= 1
 ROW00195: + COL00026 - COL00254 + 5 COL00264 <= 1
 ROW00196: + COL00027 - COL00255 + 5 COL00265 <= 1
 ROW00197: + 0.844 COL00001 - COL00266 + 5 COL00276 = 0
 ROW00198: + 0.844 COL00002 - COL00267 + 5 COL00277 = 0
 ROW00199: + 0.844 COL00003 - COL00268 = 0
 ROW00200: + 0.844 COL00004 - COL00269 = 0
 ROW00201: + 0.844 COL00005 - COL00270 + 5 COL00278 = 0
 ROW00202: + 0.844 COL00006 - COL00271 + 5 COL00279 = 0
 ROW00203: + 0.844 COL00007 - COL00272 = 0
 ROW00204: + 0.844 COL00008 - COL00273 = 0
 ROW00205: + 0.844 COL00009 - COL00274 + 5 COL00280 = 0
 ROW00206: + COL00266 + COL00267 + COL00268 + COL00269 - COL00273 >= 0.1
 ROW00207: + COL00270 + COL00271 + 22.5 COL00272 + 36 COL00273 >= 1.1911
 ROW00208: + 0.2 COL00015 + 0.0657 COL00266 + 0.0013 COL00271
 - 0.2 COL00281 = -0.014
 ROW00209: + 0.2 COL00016 + 0.001 COL00270 - 0.2 COL00282 = -0.0333
 ROW00210: + 0.17 COL00002 + 0.062 COL00003 + 0.2 COL00017
 + 0.16 COL00275 - 0.2 COL00283 = 0
 ROW00211: - 0.016 COL00002 - 0.007 COL00007 + 0.16 COL00267
 + 0.5 COL00277 - COL00294 - COL00295 - COL00296 - COL00297 - COL00298
 - COL00299 - COL00300 - COL00301 - COL00302 - COL00303 <= 0
 ROW00212: - 0.007 COL00002 - 0.005 COL00007 + 0.11 COL00267 - COL00274
 + 0.23 COL00277 <= 0
 ROW00213: - COL00003 + 0.3 COL00272 + COL00275 <= 0
 ROW00214: + 0.7 COL00276 - 0.3 COL00277 >= 0
 ROW00215: + COL00018 - COL00284 + 5 COL00294 <= 1.5
 ROW00216: + COL00019 - COL00285 + 5 COL00295 <= 1
 ROW00217: + COL00020 - COL00286 + 5 COL00296 <= 1
 ROW00218: + COL00021 - COL00287 + 5 COL00297 <= 1
 ROW00219: + COL00022 - COL00288 + 5 COL00298 <= 1
 ROW00220: + COL00023 - COL00289 + 5 COL00299 <= 1
 ROW00221: + COL00024 - COL00290 + 5 COL00300 <= 1
 ROW00222: + COL00025 - COL00291 + 5 COL00301 <= 1
 ROW00223: + COL00026 - COL00292 + 5 COL00302 <= 1
 ROW00224: + COL00027 - COL00293 + 5 COL00303 <= 1
 ROW00225: + 0.844 COL00001 - COL00304 + 5 COL00314 = 0
 ROW00226: + 0.844 COL00002 - COL00305 + 5 COL00315 = 0
 ROW00227: + 0.844 COL00003 - COL00306 = 0
 ROW00228: + 0.844 COL00004 - COL00307 = 0
 ROW00229: + 0.844 COL00005 - COL00308 + 5 COL00316 = 0
 ROW00230: + 0.844 COL00006 - COL00309 + 5 COL00317 = 0
 ROW00231: + 0.844 COL00007 - COL00310 = 0
 ROW00232: + 0.844 COL00008 - COL00311 = 0
 ROW00233: + 0.844 COL00009 - COL00312 + 5 COL00318 = 0
 ROW00234: + COL00304 + COL00305 + COL00306 + COL00307 - COL00311 >= 0.1
 ROW00235: + COL00308 + COL00309 + 22.5 COL00310 + 36 COL00311 >= 1.1911
 ROW00236: + 0.2 COL00015 + 0.0657 COL00304 + 0.0013 COL00309
 - 0.2 COL00319 = -0.014
 ROW00237: + 0.2 COL00016 + 0.001 COL00308 - 0.2 COL00320 = -0.03
 ROW00238: + 0.17 COL00002 + 0.062 COL00003 + 0.2 COL00017
 + 0.16 COL00313 - 0.2 COL00321 = 0
 ROW00239: - 0.016 COL00002 - 0.007 COL00007 + 0.16 COL00305
 + 0.5 COL00315 - COL00332 - COL00333 - COL00334 - COL00335 - COL00336
 - COL00337 - COL00338 - COL00339 - COL00340 - COL00341 <= 0
 ROW00240: - 0.007 COL00002 - 0.005 COL00007 + 0.11 COL00305 - COL00312
 + 0.23 COL00315 <= 0
 ROW00241: - COL00003 + 0.3 COL00310 + COL00313 <= 0
 ROW00242: + 0.7 COL00314 - 0.3 COL00315 >= 0
 ROW00243: + COL00018 - COL00322 + 5 COL00332 <= 1.5
 ROW00244: + COL00019 - COL00323 + 5 COL00333 <= 1
 ROW00245: + COL00020 - COL00324 + 5 COL00334 <= 1
 ROW00246: + COL00021 - COL00325 + 5 COL00335 <= 1
 ROW00247: + COL00022 - COL00326 + 5 COL00336 <= 1
 ROW00248: + COL00023 - COL00327 + 5 COL00337 <= 1
 ROW00249: + COL00024 - COL00328 + 5 COL00338 <= 1
 ROW00250: + COL00025 - COL00329 + 5 COL00339 <= 1
 ROW00251: + COL00026 - COL00330 + 5 COL00340 <= 1
 ROW00252: + COL00027 - COL00331 + 5 COL00341 <= 1
 ROW00253: + 0.844 COL00001 - COL00342 + 5 COL00352 = 0
 ROW00254: + 0.844 COL00002 - COL00343 + 5 COL00353 = 0
 ROW00255: + 0.844 COL00003 - COL00344 = 0
 ROW00256: + 0.844 COL00004 - COL00345 = 0
 ROW00257: + 0.844 COL00005 - COL00346 + 5 COL00354 = 0
 ROW00258: + 0.844 COL00006 - COL00347 + 5 COL00355 = 0
 ROW00259: + 0.844 COL00007 - COL00348 = 0
 ROW00260: + 0.844 COL00008 - COL00349 = 0
 ROW00261: + 0.844 COL00009 - COL00350 + 5 COL00356 = 0
 ROW00262: + COL00342 + COL00343 + COL00344 + COL00345 - COL00349
 >= 0.12
 ROW00263: + COL00346 + COL00347 + 22.5 COL00348 + 36 COL00349 >= 1.1911
 ROW00264: + 0.2 COL00015 + 0.0657 COL00342 + 0.0013 COL00347
 - 0.2 COL00357 = -0.013
 ROW00265: + 0.2 COL00016 + 0.001 COL00346 - 0.2 COL00358 = -0.04
 ROW00266: + 0.17 COL00002 + 0.062 COL00003 + 0.2 COL00017
 + 0.16 COL00351 - 0.2 COL00359 = 0
 ROW00267: - 0.016 COL00002 - 0.007 COL00007 + 0.16 COL00343
 + 0.5 COL00353 - COL00370 - COL00371 - COL00372 - COL00373 - COL00374
 - COL00375 - COL00376 - COL00377 - COL00378 - COL00379 <= 0
 ROW00268: - 0.007 COL00002 - 0.005 COL00007 + 0.11 COL00343 - COL00350
 + 0.23 COL00353 <= 0
 ROW00269: - COL00003 + 0.3 COL00348 + COL00351 <= 0
 ROW00270: + 0.7 COL00352 - 0.3 COL00353 >= 0
 ROW00271: + COL00018 - COL00360 + 5 COL00370 <= 1.5
 ROW00272: + COL00019 - COL00361 + 5 COL00371 <= 1
 ROW00273: + COL00020 - COL00362 + 5 COL00372 <= 1
 ROW00274: + COL00021 - COL00363 + 5 COL00373 <= 1
 ROW00275: + COL00022 - COL00364 + 5 COL00374 <= 1
 ROW00276: + COL00023 - COL00365 + 5 COL00375 <= 1
 ROW00277: + COL00024 - COL00366 + 5 COL00376 <= 1
 ROW00278: + COL00025 - COL00367 + 5 COL00377 <= 1
 ROW00279: + COL00026 - COL00368 + 5 COL00378 <= 1
 ROW00280: + COL00027 - COL00369 + 5 COL00379 <= 1
 ROW00281: + 0.844 COL00001 - COL00380 + 5 COL00390 = 0
 ROW00282: + 0.844 COL00002 - COL00381 + 5 COL00391 = 0
 ROW00283: + 0.844 COL00003 - COL00382 = 0
 ROW00284: + 0.844 COL00004 - COL00383 = 0
 ROW00285: + 0.844 COL00005 - COL00384 + 5 COL00392 = 0
 ROW00286: + 0.844 COL00006 - COL00385 + 5 COL00393 = 0
 ROW00287: + 0.844 COL00007 - COL00386 = 0
 ROW00288: + 0.844 COL00008 - COL00387 = 0
 ROW00289: + 0.844 COL00009 - COL00388 + 5 COL00394 = 0
 ROW00290: + COL00380 + COL00381 + COL00382 + COL00383 - COL00387
 >= 0.12
 ROW00291: + COL00384 + COL00385 + 22.5 COL00386 + 36 COL00387 >= 1.1911
 ROW00292: + 0.2 COL00015 + 0.0657 COL00380 + 0.0013 COL00385
 - 0.2 COL00395 = -0.013
 ROW00293: + 0.2 COL00016 + 0.001 COL00384 - 0.2 COL00396 = -0.0367
 ROW00294: + 0.17 COL00002 + 0.062 COL00003 + 0.2 COL00017
 + 0.16 COL00389 - 0.2 COL00397 = 0
 ROW00295: - 0.016 COL00002 - 0.007 COL00007 + 0.16 COL00381
 + 0.5 COL00391 - COL00408 - COL00409 - COL00410 - COL00411 - COL00412
 - COL00413 - COL00414 - COL00415 - COL00416 - COL00417 <= 0
 ROW00296: - 0.007 COL00002 - 0.005 COL00007 + 0.11 COL00381 - COL00388
 + 0.23 COL00391 <= 0
 ROW00297: - COL00003 + 0.3 COL00386 + COL00389 <= 0
 ROW00298: + 0.7 COL00390 - 0.3 COL00391 >= 0
 ROW00299: + COL00018 - COL00398 + 5 COL00408 <= 1.5
 ROW00300: + COL00019 - COL00399 + 5 COL00409 <= 1
 ROW00301: + COL00020 - COL00400 + 5 COL00410 <= 1
 ROW00302: + COL00021 - COL00401 + 5 COL00411 <= 1
 ROW00303: + COL00022 - COL00402 + 5 COL00412 <= 1
 ROW00304: + COL00023 - COL00403 + 5 COL00413 <= 1
 ROW00305: + COL00024 - COL00404 + 5 COL00414 <= 1
 ROW00306: + COL00025 - COL00405 + 5 COL00415 <= 1
 ROW00307: + COL00026 - COL00406 + 5 COL00416 <= 1
 ROW00308: + COL00027 - COL00407 + 5 COL00417 <= 1
 ROW00309: + 0.844 COL00001 - COL00418 + 5 COL00428 = 0
 ROW00310: + 0.844 COL00002 - COL00419 + 5 COL00429 = 0
 ROW00311: + 0.844 COL00003 - COL00420 = 0
 ROW00312: + 0.844 COL00004 - COL00421 = 0
 ROW00313: + 0.844 COL00005 - COL00422 + 5 COL00430 = 0
 ROW00314: + 0.844 COL00006 - COL00423 + 5 COL00431 = 0
 ROW00315: + 0.844 COL00007 - COL00424 = 0
 ROW00316: + 0.844 COL00008 - COL00425 = 0
 ROW00317: + 0.844 COL00009 - COL00426 + 5 COL00432 = 0
 ROW00318: + COL00418 + COL00419 + COL00420 + COL00421 - COL00425
 >= 0.12
 ROW00319: + COL00422 + COL00423 + 22.5 COL00424 + 36 COL00425 >= 1.1911
 ROW00320: + 0.2 COL00015 + 0.0657 COL00418 + 0.0013 COL00423
 - 0.2 COL00433 = -0.013
 ROW00321: + 0.2 COL00016 + 0.001 COL00422 - 0.2 COL00434 = -0.0333
 ROW00322: + 0.17 COL00002 + 0.062 COL00003 + 0.2 COL00017
 + 0.16 COL00427 - 0.2 COL00435 = 0
 ROW00323: - 0.016 COL00002 - 0.007 COL00007 + 0.16 COL00419
 + 0.5 COL00429 - COL00446 - COL00447 - COL00448 - COL00449 - COL00450
 - COL00451 - COL00452 - COL00453 - COL00454 - COL00455 <= 0
 ROW00324: - 0.007 COL00002 - 0.005 COL00007 + 0.11 COL00419 - COL00426
 + 0.23 COL00429 <= 0
 ROW00325: - COL00003 + 0.3 COL00424 + COL00427 <= 0
 ROW00326: + 0.7 COL00428 - 0.3 COL00429 >= 0
 ROW00327: + COL00018 - COL00436 + 5 COL00446 <= 1.5
 ROW00328: + COL00019 - COL00437 + 5 COL00447 <= 1
 ROW00329: + COL00020 - COL00438 + 5 COL00448 <= 1
 ROW00330: + COL00021 - COL00439 + 5 COL00449 <= 1
 ROW00331: + COL00022 - COL00440 + 5 COL00450 <= 1
 ROW00332: + COL00023 - COL00441 + 5 COL00451 <= 1
 ROW00333: + COL00024 - COL00442 + 5 COL00452 <= 1
 ROW00334: + COL00025 - COL00443 + 5 COL00453 <= 1
 ROW00335: + COL00026 - COL00444 + 5 COL00454 <= 1
 ROW00336: + COL00027 - COL00445 + 5 COL00455 <= 1
 ROW00337: + 0.844 COL00001 - COL00456 + 5 COL00466 = 0
 ROW00338: + 0.844 COL00002 - COL00457 + 5 COL00467 = 0
 ROW00339: + 0.844 COL00003 - COL00458 = 0
 ROW00340: + 0.844 COL00004 - COL00459 = 0
 ROW00341: + 0.844 COL00005 - COL00460 + 5 COL00468 = 0
 ROW00342: + 0.844 COL00006 - COL00461 + 5 COL00469 = 0
 ROW00343: + 0.844 COL00007 - COL00462 = 0
 ROW00344: + 0.844 COL00008 - COL00463 = 0
 ROW00345: + 0.844 COL00009 - COL00464 + 5 COL00470 = 0
 ROW00346: + COL00456 + COL00457 + COL00458 + COL00459 - COL00463
 >= 0.12
 ROW00347: + COL00460 + COL00461 + 22.5 COL00462 + 36 COL00463 >= 1.1911
 ROW00348: + 0.2 COL00015 + 0.0657 COL00456 + 0.0013 COL00461
 - 0.2 COL00471 = -0.013
 ROW00349: + 0.2 COL00016 + 0.001 COL00460 - 0.2 COL00472 = -0.03
 ROW00350: + 0.17 COL00002 + 0.062 COL00003 + 0.2 COL00017
 + 0.16 COL00465 - 0.2 COL00473 = 0
 ROW00351: - 0.016 COL00002 - 0.007 COL00007 + 0.16 COL00457
 + 0.5 COL00467 - COL00484 - COL00485 - COL00486 - COL00487 - COL00488
 - COL00489 - COL00490 - COL00491 - COL00492 - COL00493 <= 0
 ROW00352: - 0.007 COL00002 - 0.005 COL00007 + 0.11 COL00457 - COL00464
 + 0.23 COL00467 <= 0
 ROW00353: - COL00003 + 0.3 COL00462 + COL00465 <= 0
 ROW00354: + 0.7 COL00466 - 0.3 COL00467 >= 0
 ROW00355: + COL00018 - COL00474 + 5 COL00484 <= 1.5
 ROW00356: + COL00019 - COL00475 + 5 COL00485 <= 1
 ROW00357: + COL00020 - COL00476 + 5 COL00486 <= 1
 ROW00358: + COL00021 - COL00477 + 5 COL00487 <= 1
 ROW00359: + COL00022 - COL00478 + 5 COL00488 <= 1
 ROW00360: + COL00023 - COL00479 + 5 COL00489 <= 1
 ROW00361: + COL00024 - COL00480 + 5 COL00490 <= 1
 ROW00362: + COL00025 - COL00481 + 5 COL00491 <= 1
 ROW00363: + COL00026 - COL00482 + 5 COL00492 <= 1
 ROW00364: + COL00027 - COL00483 + 5 COL00493 <= 1
 ROW00365: + 0.844 COL00001 - COL00494 + 5 COL00504 = 0
 ROW00366: + 0.844 COL00002 - COL00495 + 5 COL00505 = 0
 ROW00367: + 0.844 COL00003 - COL00496 = 0
 ROW00368: + 0.844 COL00004 - COL00497 = 0
 ROW00369: + 0.844 COL00005 - COL00498 + 5 COL00506 = 0
 ROW00370: + 0.844 COL00006 - COL00499 + 5 COL00507 = 0
 ROW00371: + 0.844 COL00007 - COL00500 = 0
 ROW00372: + 0.844 COL00008 - COL00501 = 0
 ROW00373: + 0.844 COL00009 - COL00502 + 5 COL00508 = 0
 ROW00374: + COL00494 + COL00495 + COL00496 + COL00497 - COL00501
 >= 0.12
 ROW00375: + COL00498 + COL00499 + 22.5 COL00500 + 36 COL00501 >= 1.1911
 ROW00376: + 0.2 COL00015 + 0.0657 COL00494 + 0.0013 COL00499
 - 0.2 COL00509 = -0.014
 ROW00377: + 0.2 COL00016 + 0.001 COL00498 - 0.2 COL00510 = -0.04
 ROW00378: + 0.17 COL00002 + 0.062 COL00003 + 0.2 COL00017
 + 0.16 COL00503 - 0.2 COL00511 = 0
 ROW00379: - 0.016 COL00002 - 0.007 COL00007 + 0.16 COL00495
 + 0.5 COL00505 - COL00522 - COL00523 - COL00524 - COL00525 - COL00526
 - COL00527 - COL00528 - COL00529 - COL00530 - COL00531 <= 0
 ROW00380: - 0.007 COL00002 - 0.005 COL00007 + 0.11 COL00495 - COL00502
 + 0.23 COL00505 <= 0
 ROW00381: - COL00003 + 0.3 COL00500 + COL00503 <= 0
 ROW00382: + 0.7 COL00504 - 0.3 COL00505 >= 0
 ROW00383: + COL00018 - COL00512 + 5 COL00522 <= 1.5
 ROW00384: + COL00019 - COL00513 + 5 COL00523 <= 1
 ROW00385: + COL00020 - COL00514 + 5 COL00524 <= 1
 ROW00386: + COL00021 - COL00515 + 5 COL00525 <= 1
 ROW00387: + COL00022 - COL00516 + 5 COL00526 <= 1
 ROW00388: + COL00023 - COL00517 + 5 COL00527 <= 1
 ROW00389: + COL00024 - COL00518 + 5 COL00528 <= 1
 ROW00390: + COL00025 - COL00519 + 5 COL00529 <= 1
 ROW00391: + COL00026 - COL00520 + 5 COL00530 <= 1
 ROW00392: + COL00027 - COL00521 + 5 COL00531 <= 1
 ROW00393: + 0.844 COL00001 - COL00532 + 5 COL00542 = 0
 ROW00394: + 0.844 COL00002 - COL00533 + 5 COL00543 = 0
 ROW00395: + 0.844 COL00003 - COL00534 = 0
 ROW00396: + 0.844 COL00004 - COL00535 = 0
 ROW00397: + 0.844 COL00005 - COL00536 + 5 COL00544 = 0
 ROW00398: + 0.844 COL00006 - COL00537 + 5 COL00545 = 0
 ROW00399: + 0.844 COL00007 - COL00538 = 0
 ROW00400: + 0.844 COL00008 - COL00539 = 0
 ROW00401: + 0.844 COL00009 - COL00540 + 5 COL00546 = 0
 ROW00402: + COL00532 + COL00533 + COL00534 + COL00535 - COL00539
 >= 0.12
 ROW00403: + COL00536 + COL00537 + 22.5 COL00538 + 36 COL00539 >= 1.1911
 ROW00404: + 0.2 COL00015 + 0.0657 COL00532 + 0.0013 COL00537
 - 0.2 COL00547 = -0.014
 ROW00405: + 0.2 COL00016 + 0.001 COL00536 - 0.2 COL00548 = -0.0367
 ROW00406: + 0.17 COL00002 + 0.062 COL00003 + 0.2 COL00017
 + 0.16 COL00541 - 0.2 COL00549 = 0
 ROW00407: - 0.016 COL00002 - 0.007 COL00007 + 0.16 COL00533
 + 0.5 COL00543 - COL00560 - COL00561 - COL00562 - COL00563 - COL00564
 - COL00565 - COL00566 - COL00567 - COL00568 - COL00569 <= 0
 ROW00408: - 0.007 COL00002 - 0.005 COL00007 + 0.11 COL00533 - COL00540
 + 0.23 COL00543 <= 0
 ROW00409: - COL00003 + 0.3 COL00538 + COL00541 <= 0
 ROW00410: + 0.7 COL00542 - 0.3 COL00543 >= 0
 ROW00411: + COL00018 - COL00550 + 5 COL00560 <= 1.5
 ROW00412: + COL00019 - COL00551 + 5 COL00561 <= 1
 ROW00413: + COL00020 - COL00552 + 5 COL00562 <= 1
 ROW00414: + COL00021 - COL00553 + 5 COL00563 <= 1
 ROW00415: + COL00022 - COL00554 + 5 COL00564 <= 1
 ROW00416: + COL00023 - COL00555 + 5 COL00565 <= 1
 ROW00417: + COL00024 - COL00556 + 5 COL00566 <= 1
 ROW00418: + COL00025 - COL00557 + 5 COL00567 <= 1
 ROW00419: + COL00026 - COL00558 + 5 COL00568 <= 1
 ROW00420: + COL00027 - COL00559 + 5 COL00569 <= 1
 ROW00421: + 0.844 COL00001 - COL00570 + 5 COL00580 = 0
 ROW00422: + 0.844 COL00002 - COL00571 + 5 COL00581 = 0
 ROW00423: + 0.844 COL00003 - COL00572 = 0
 ROW00424: + 0.844 COL00004 - COL00573 = 0
 ROW00425: + 0.844 COL00005 - COL00574 + 5 COL00582 = 0
 ROW00426: + 0.844 COL00006 - COL00575 + 5 COL00583 = 0
 ROW00427: + 0.844 COL00007 - COL00576 = 0
 ROW00428: + 0.844 COL00008 - COL00577 = 0
 ROW00429: + 0.844 COL00009 - COL00578 + 5 COL00584 = 0
 ROW00430: + COL00570 + COL00571 + COL00572 + COL00573 - COL00577
 >= 0.12
 ROW00431: + COL00574 + COL00575 + 22.5 COL00576 + 36 COL00577 >= 1.1911
 ROW00432: + 0.2 COL00015 + 0.0657 COL00570 + 0.0013 COL00575
 - 0.2 COL00585 = -0.014
 ROW00433: + 0.2 COL00016 + 0.001 COL00574 - 0.2 COL00586 = -0.0333
 ROW00434: + 0.17 COL00002 + 0.062 COL00003 + 0.2 COL00017
 + 0.16 COL00579 - 0.2 COL00587 = 0
 ROW00435: - 0.016 COL00002 - 0.007 COL00007 + 0.16 COL00571
 + 0.5 COL00581 - COL00598 - COL00599 - COL00600 - COL00601 - COL00602
 - COL00603 - COL00604 - COL00605 - COL00606 - COL00607 <= 0
 ROW00436: - 0.007 COL00002 - 0.005 COL00007 + 0.11 COL00571 - COL00578
 + 0.23 COL00581 <= 0
 ROW00437: - COL00003 + 0.3 COL00576 + COL00579 <= 0
 ROW00438: + 0.7 COL00580 - 0.3 COL00581 >= 0
 ROW00439: + COL00018 - COL00588 + 5 COL00598 <= 1.5
 ROW00440: + COL00019 - COL00589 + 5 COL00599 <= 1
 ROW00441: + COL00020 - COL00590 + 5 COL00600 <= 1
 ROW00442: + COL00021 - COL00591 + 5 COL00601 <= 1
 ROW00443: + COL00022 - COL00592 + 5 COL00602 <= 1
 ROW00444: + COL00023 - COL00593 + 5 COL00603 <= 1
 ROW00445: + COL00024 - COL00594 + 5 COL00604 <= 1
 ROW00446: + COL00025 - COL00595 + 5 COL00605 <= 1
 ROW00447: + COL00026 - COL00596 + 5 COL00606 <= 1
 ROW00448: + COL00027 - COL00597 + 5 COL00607 <= 1
 ROW00449: + 0.844 COL00001 - COL00608 + 5 COL00618 = 0
 ROW00450: + 0.844 COL00002 - COL00609 + 5 COL00619 = 0
 ROW00451: + 0.844 COL00003 - COL00610 = 0
 ROW00452: + 0.844 COL00004 - COL00611 = 0
 ROW00453: + 0.844 COL00005 - COL00612 + 5 COL00620 = 0
 ROW00454: + 0.844 COL00006 - COL00613 + 5 COL00621 = 0
 ROW00455: + 0.844 COL00007 - COL00614 = 0
 ROW00456: + 0.844 COL00008 - COL00615 = 0
 ROW00457: + 0.844 COL00009 - COL00616 + 5 COL00622 = 0
 ROW00458: + COL00608 + COL00609 + COL00610 + COL00611 - COL00615
 >= 0.12
 ROW00459: + COL00612 + COL00613 + 22.5 COL00614 + 36 COL00615 >= 1.1911
 ROW00460: + 0.2 COL00015 + 0.0657 COL00608 + 0.0013 COL00613
 - 0.2 COL00623 = -0.014
 ROW00461: + 0.2 COL00016 + 0.001 COL00612 - 0.2 COL00624 = -0.03
 ROW00462: + 0.17 COL00002 + 0.062 COL00003 + 0.2 COL00017
 + 0.16 COL00617 - 0.2 COL00625 = 0
 ROW00463: - 0.016 COL00002 - 0.007 COL00007 + 0.16 COL00609
 + 0.5 COL00619 - COL00636 - COL00637 - COL00638 - COL00639 - COL00640
 - COL00641 - COL00642 - COL00643 - COL00644 - COL00645 <= 0
 ROW00464: - 0.007 COL00002 - 0.005 COL00007 + 0.11 COL00609 - COL00616
 + 0.23 COL00619 <= 0
 ROW00465: - COL00003 + 0.3 COL00614 + COL00617 <= 0
 ROW00466: + 0.7 COL00618 - 0.3 COL00619 >= 0
 ROW00467: + COL00018 - COL00626 + 5 COL00636 <= 1.5
 ROW00468: + COL00019 - COL00627 + 5 COL00637 <= 1
 ROW00469: + COL00020 - COL00628 + 5 COL00638 <= 1
 ROW00470: + COL00021 - COL00629 + 5 COL00639 <= 1
 ROW00471: + COL00022 - COL00630 + 5 COL00640 <= 1
 ROW00472: + COL00023 - COL00631 + 5 COL00641 <= 1
 ROW00473: + COL00024 - COL00632 + 5 COL00642 <= 1
 ROW00474: + COL00025 - COL00633 + 5 COL00643 <= 1
 ROW00475: + COL00026 - COL00634 + 5 COL00644 <= 1
 ROW00476: + COL00027 - COL00635 + 5 COL00645 <= 1

End
